122 5
10 10 10 10 10 

0 0 0 0 0 0 1 2 
0 0 0 0 0 0 4 3 7 11 12 
6 0 0 0 1 0 1 4 
9 0 0 0 2 0 3 10 9 5 
8 0 0 0 3 0 1 6 
4 0 0 0 3 0 1 8 
9 0 0 0 3 0 1 8 
3 0 0 0 4 0 1 13 
3 0 0 0 1 0 1 13 
2 0 0 0 1 0 1 13 
9 0 0 0 4 0 1 13 
9 0 0 0 3 0 1 13 
0 0 0 0 0 0 2 14 26 
0 0 0 0 0 0 3 15 16 17 
4 0 0 0 0 1 3 22 19 18 
5 0 0 0 0 3 3 22 20 18 
1 0 0 0 0 1 3 24 22 20 
1 0 0 0 0 2 2 24 21 
9 0 0 0 0 2 1 20 
3 0 0 0 0 1 1 21 
2 0 0 0 0 5 1 23 
9 0 0 0 0 3 1 23 
8 0 0 0 0 3 1 25 
1 0 0 0 0 4 1 25 
0 0 0 0 0 0 1 38 
0 0 0 0 0 0 2 27 31 
3 0 0 0 1 0 3 33 30 28 
1 0 0 0 2 0 2 36 29 
4 0 0 0 3 0 2 35 32 
5 0 0 0 4 0 2 35 34 
7 0 0 0 3 0 2 36 35 
5 0 0 0 3 0 1 34 
6 0 0 0 2 0 1 34 
7 0 0 0 1 0 1 37 
4 0 0 0 2 0 1 37 
7 0 0 0 4 0 1 37 
0 0 0 0 0 0 1 38 
0 0 0 0 0 0 5 39 51 63 75 87 
0 0 0 0 0 0 3 40 42 45 
5 0 0 1 0 0 3 49 48 41 
8 0 0 3 0 0 2 47 43 
10 0 0 1 0 0 3 48 47 46 
5 0 0 2 0 0 1 44 
6 0 0 1 0 0 1 46 
6 0 0 5 0 0 1 47 
1 0 0 4 0 0 1 50 
7 0 0 4 0 0 1 50 
10 0 0 3 0 0 1 50 
3 0 0 1 0 0 1 50 
0 0 0 0 0 0 1 99 
0 0 0 0 0 0 1 52 
8 0 0 0 1 0 2 54 53 
4 0 0 0 3 0 2 56 55 
9 0 0 0 2 0 2 56 55 
10 0 0 0 3 0 4 60 59 58 57 
10 0 0 0 2 0 4 60 59 58 57 
2 0 0 0 2 0 1 61 
8 0 0 0 2 0 1 61 
3 0 0 0 4 0 1 61 
8 0 0 0 1 0 1 61 
8 0 0 0 5 0 1 62 
0 0 0 0 0 0 1 99 
0 0 0 0 0 0 2 64 67 
2 0 1 0 0 0 3 70 66 65 
10 0 5 0 0 0 2 73 68 
10 0 2 0 0 0 3 73 71 69 
1 0 2 0 0 0 3 73 72 70 
1 0 2 0 0 0 2 71 69 
3 0 2 0 0 0 1 72 
3 0 4 0 0 0 1 71 
3 0 1 0 0 0 1 74 
7 0 1 0 0 0 1 74 
5 0 5 0 0 0 1 74 
0 0 0 0 0 0 1 99 
0 0 0 0 0 0 1 76 
5 1 0 0 0 0 4 83 82 79 77 
7 5 0 0 0 0 1 78 
9 4 0 0 0 0 2 81 80 
2 4 0 0 0 0 2 84 80 
10 1 0 0 0 0 1 85 
2 1 0 0 0 0 1 84 
7 2 0 0 0 0 1 85 
9 2 0 0 0 0 1 84 
6 2 0 0 0 0 1 86 
4 3 0 0 0 0 1 86 
0 0 0 0 0 0 1 99 
0 0 0 0 0 0 4 88 91 93 97 
5 0 0 0 1 0 2 90 89 
4 0 0 0 2 0 2 96 92 
4 0 0 0 4 0 1 92 
3 0 0 0 2 0 1 92 
5 0 0 0 3 0 1 94 
3 0 0 0 2 0 1 94 
10 0 0 0 3 0 1 95 
3 0 0 0 3 0 1 98 
1 0 0 0 3 0 1 98 
4 0 0 0 2 0 1 98 
0 0 0 0 0 0 1 99 
0 0 0 0 0 0 5 100 102 105 106 109 
6 0 0 1 0 0 1 101 
10 0 0 3 0 0 1 103 
8 0 0 1 0 0 2 108 107 
5 0 0 6 0 0 1 104 
2 0 0 2 0 0 1 107 
10 0 0 2 0 0 1 108 
7 0 0 3 0 0 1 107 
3 0 0 1 0 0 1 110 
4 0 0 4 0 0 1 110 
8 0 0 2 0 0 1 110 
0 0 0 0 0 0 1 111 
0 0 0 0 0 0 4 112 113 114 117 
9 0 0 0 0 1 2 121 115 
3 0 0 0 0 1 2 121 116 
2 0 0 0 0 1 2 121 116 
9 0 0 0 0 2 1 116 
10 0 0 0 0 3 2 120 118 
8 0 0 0 0 4 2 120 118 
6 0 0 0 0 1 1 119 
6 0 0 0 0 4 1 122 
8 0 0 0 0 4 1 122 
6 0 0 0 0 4 1 122 
0 0 0 0 0 0 0 
